p cnf 9 61 
-1 2 4 0 
-1 -2 -4 0 
-2 1 3 5 0 
-2 -1 -3 0 
-2 -1 -5 0 
-2 -3 -5 0 
-3 2 6 0 
-3 -2 -6 0 
-4 7 5 1 0 
-4 -7 -5 0 
-4 -7 -1 0 
-4 -5 -1 0 
-5 -2 -4 0 
-5 -2 -6 0 
-5 -2 -8 0 
-5 2 4 6 8 0 
-5 -4 -6 0 
-5 -4 -8 0 
-5 -6 -8 0 
-6 9 5 3 0 
-6 -9 -5 0 
-6 -9 -3 0 
-6 -5 -3 0 
-7 8 4 0 
-7 -8 -4 0 
-8 7 9 5 0 
-8 -7 -9 0 
-8 -7 -5 0 
-8 -9 -5 0 
-9 8 6 0 
-9 -8 -6 0 
3 6 0 
3 9 0 
6 9 0 
-3 -6 -9 0 
1 2 4 5 7 0 
1 2 4 5 8 0 
1 2 4 7 8 0 
1 2 5 7 8 0 
1 4 5 7 8 0 
2 4 5 7 8 0 
-1 -2 -4 0 
-1 -2 -5 0 
-1 -2 -7 0 
-1 -2 -8 0 
-1 -4 -5 0 
-1 -4 -7 0 
-1 -4 -8 0 
-1 -5 -7 0 
-1 -5 -8 0 
-1 -7 -8 0 
-2 -4 -5 0 
-2 -4 -7 0 
-2 -4 -8 0 
-2 -5 -7 0 
-2 -5 -8 0 
-2 -7 -8 0 
-4 -5 -7 0 
-4 -5 -8 0 
-4 -7 -8 0 
-5 -7 -8 0 
